; Copyright (c) 2026 The RIINA Authors. All rights reserved.
; Copyright (c) 2026 The RIINA Authors.
; Auto-generated from 02_FORMAL/coq/properties/ClosedValueLemmas.v (11 assertions)
; Generated by scripts/generate-full-stack.py
; Module: ClosedValueLemmas

(set-logic ALL)
(set-option :produce-models true)

; closed_expr_cv (matches Coq: Definition closed_expr_cv)
(define-fun closed_expr_cv ((e expr)) Prop
  true)

; value_typed_closed (matches Coq: Lemma value_typed_closed)
(assert (= true true)) ; value_typed_closed [untranslatable]

; closed_pair_cv (matches Coq: Lemma closed_pair_cv)
(assert (= true true)) ; closed_pair_cv [untranslatable]

; closed_inl_cv (matches Coq: Lemma closed_inl_cv)
(assert (= true true)) ; closed_inl_cv [untranslatable]

; closed_inr_cv (matches Coq: Lemma closed_inr_cv)
(assert (= true true)) ; closed_inr_cv [untranslatable]

; closed_app_cv (matches Coq: Lemma closed_app_cv)
(assert (= true true)) ; closed_app_cv [untranslatable]

; closed_unit_cv (matches Coq: Lemma closed_unit_cv)
(assert (= true true)) ; closed_unit_cv [untranslatable]

; closed_bool_cv (matches Coq: Lemma closed_bool_cv)
(assert (= true true)) ; closed_bool_cv [untranslatable]

; closed_int_cv (matches Coq: Lemma closed_int_cv)
(assert (= true true)) ; closed_int_cv [untranslatable]

; closed_string_cv (matches Coq: Lemma closed_string_cv)
(assert (= true true)) ; closed_string_cv [untranslatable]

; closed_loc_cv (matches Coq: Lemma closed_loc_cv)
(assert (= true true)) ; closed_loc_cv [untranslatable]

; closed_lam_body_cv (matches Coq: Lemma closed_lam_body_cv)
(assert (= true true)) ; closed_lam_body_cv [untranslatable]

; Verify all assertions are satisfiable
(check-sat)
(exit)
